NAME: tsp_420
COMMENT: Random TSP instance
TYPE: TSP
DIMENSION: 50
EDGE_WEIGHT_TYPE: EUC_2D
NODE_COORD_SECTION
1 337 109
2 819 487
3 561 181
4 259 451
5 352 410
6 286 442
7 216 455
8 510 525
9 319 214
10 131 179
11 142 900
12 696 916
13 762 716
14 855 559
15 243 208
16 324 829
17 177 554
18 213 747
19 497 819
20 432 482
21 786 188
22 516 876
23 363 685
24 741 579
25 240 492
26 874 792
27 58 275
28 133 951
29 553 172
30 756 665
31 161 250
32 197 458
33 466 75
34 956 162
35 987 869
36 712 481
37 467 686
38 909 844
39 450 266
40 960 320
41 557 697
42 969 783
43 987 293
44 937 723
45 928 634
46 589 658
47 720 342
48 652 566
49 179 836
50 379 402
